(set-logic HORN)

(declare-datatypes ((node 0)) (((node  (next Int) (data Int)))))
(declare-datatypes ((HeapObject 0)) (((O_Int  (getInt Int)) (O_UInt  (getUInt Int)) (O_Addr  (getAddr Int)) (O_node  (getnode node)) (defObj ))))
(declare-datatypes ((Heap 0)) (((HeapCtor  (HeapSize Int) (HeapContents (Array Int HeapObject))))))

(declare-fun |inv_main83| ( Heap Int Int Int Int Int Int ) Bool)
(declare-fun |inv_main28| ( Heap Int Int Int Int Int Int Int Int ) Bool)
(declare-fun |inv_main4| ( Heap Int Int ) Bool)
(declare-fun |inv_main21| ( Heap Int Int Int Int Int Int ) Bool)
(declare-fun |inv_main87| ( Heap Int Int Int Int Int Int Int ) Bool)
(declare-fun |inv_main12| ( Heap Int Int Int Int Int Int ) Bool)
(declare-fun |inv_main55| ( Heap Int Int Int Int Int Int Int ) Bool)
(declare-fun |inv_main58| ( Heap Int Int Int Int Int Int ) Bool)
(declare-fun |CHC_COMP_FALSE| ( ) Bool)
(declare-fun |inv_main71| ( Heap Int Int Int Int Int ) Bool)
(declare-fun |inv_main90| ( Heap Int Int Int Int Int ) Bool)
(declare-fun |inv_main63| ( Heap Int Int Int Int Int Int Int ) Bool)
(declare-fun |inv_main66| ( Heap Int Int Int Int Int Int Int ) Bool)
(declare-fun |inv_main34| ( Heap Int Int Int Int Int Int Int Int ) Bool)
(declare-fun |inv_main18| ( Heap Int Int Int Int Int Int ) Bool)
(declare-fun |inv_main36| ( Heap Int Int Int Int Int Int Int ) Bool)
(declare-fun |inv_main49| ( Heap Int Int Int Int Int Int Int ) Bool)
(declare-fun |inv_main62| ( Heap Int Int Int Int Int Int Int ) Bool)
(declare-fun |inv_main22| ( Heap Int Int Int Int Int Int ) Bool)
(declare-fun |inv_main61| ( Heap Int Int Int Int Int Int Int ) Bool)
(declare-fun |inv_main68| ( Heap Int Int Int Int Int ) Bool)

(assert
  (forall ( (A Heap) (v_1 Int) (v_2 Int) ) 
    (=>
      (and
        (and (= A (HeapCtor 0 ((as const (Array Int HeapObject)) defObj)))
     (= 2 v_1)
     (= 1 v_2))
      )
      (inv_main4 A v_1 v_2)
    )
  )
)
(assert
  (forall ( (A Int) (B Int) (C Int) (D Int) (E Int) (F Int) (G Heap) (H Int) (I Int) (J Int) (K Int) (L Int) (M Int) (N Int) (O Int) (P Int) (Q Heap) ) 
    (=>
      (and
        (inv_main61 Q P O N M L K J)
        (let ((a!1 (ite (and (not (<= J 0)) (>= (HeapSize Q) J))
                (select (HeapContents Q) J)
                defObj)))
  (and (= F P)
       (= E O)
       (= D M)
       (= C L)
       (= B K)
       (= A J)
       (= I (next (getnode a!1)))
       (= I H)
       (= G Q)
       ((_ is O_node) a!1)
       (= H N)))
      )
      (inv_main62 G F E H D C B A)
    )
  )
)
(assert
  (forall ( (A Int) (B Int) (C Int) (D Int) (E Int) (F Int) (G Int) (H node) (I Heap) (J Int) (K Int) (L Int) (M Int) (N Int) (O Int) (P Int) (Q Heap) ) 
    (=>
      (and
        (inv_main21 Q P O N M L K)
        (let ((a!1 (HeapCtor (+ 1 (HeapSize Q))
                     (store (HeapContents Q) (+ 1 (HeapSize Q)) (O_node H)))))
  (and (= G P)
       (= F O)
       (= E N)
       (= D M)
       (= C L)
       (= B K)
       (= A M)
       (= J (+ 1 (HeapSize Q)))
       (= I a!1)
       (<= 2 N)
       (not (= 0 J))))
      )
      (inv_main28 I G F E D C B A J)
    )
  )
)
(assert
  (forall ( (A Int) (B Int) (C Int) (D Int) (E Int) (F node) (G Heap) (H Int) (I Int) (J Int) (K Heap) ) 
    (=>
      (and
        (inv_main4 K J I)
        (let ((a!1 (HeapCtor (+ 1 (HeapSize K))
                     (store (HeapContents K) (+ 1 (HeapSize K)) (O_node F)))))
  (and (= A I)
       (= B I)
       (= H (+ 1 (HeapSize K)))
       (= E J)
       (= D I)
       (= C J)
       (= G a!1)
       (not (= 0 H))))
      )
      (inv_main12 G E D C B A H)
    )
  )
)
(assert
  (forall ( (A Heap) (B Int) (C Int) (D Int) (E Int) (F Int) (G Int) (H Heap) ) 
    (=>
      (and
        (inv_main12 H G F E D C B)
        (let ((a!1 (ite (and (not (<= B 0)) (>= (HeapSize H) B))
                (select (HeapContents H) B)
                defObj)))
(let ((a!2 (O_node (node 0 (data (getnode a!1))))))
(let ((a!3 (ite (and (not (<= B 0)) (>= (HeapSize H) B))
                (HeapCtor (HeapSize H) (store (HeapContents H) B a!2))
                H)))
  (and ((_ is O_node) a!1) (= A a!3)))))
      )
      (inv_main18 A G F E D C B)
    )
  )
)
(assert
  (forall ( (A Int) (B Int) (C Int) (D Int) (E Int) (F Int) (G Heap) ) 
    (=>
      (and
        (inv_main21 G F E D C B A)
        (not (<= 2 D))
      )
      (inv_main22 G F E D C B A)
    )
  )
)
(assert
  (forall ( (A Int) (B Int) (C Int) (D Int) (E Int) (F Int) (G Int) (H Int) (I Heap) (J Int) (K Int) (L Int) (M Int) (N Int) (O Int) (P Int) (Q Heap) ) 
    (=>
      (and
        (inv_main63 Q P O N M L K J)
        (let ((a!1 (ite (and (not (<= J 0)) (>= (HeapSize Q) J))
                (select (HeapContents Q) J)
                defObj)))
  (and (= H P)
       (= F N)
       (= E M)
       (= D L)
       (= C K)
       (= B J)
       (= A (next (getnode a!1)))
       (= I Q)
       ((_ is O_node) a!1)
       (= G O)))
      )
      (inv_main61 I H G F E D C A)
    )
  )
)
(assert
  (forall ( (A Int) (B Int) (C Int) (D Int) (E Int) (F Int) (G Heap) (H Int) (I Int) (J Int) (K Int) (L Int) (M Int) (N Int) (O Int) (P Heap) (v_16 Int) ) 
    (=>
      (and
        (inv_main55 P O N M L K J I)
        (let ((a!1 (ite (and (not (<= I 0)) (>= (HeapSize P) I))
                (select (HeapContents P) I)
                defObj)))
(let ((a!2 (O_node (node (next (getnode a!1)) J))))
(let ((a!3 (ite (and (not (<= I 0)) (>= (HeapSize P) I))
                (HeapCtor (HeapSize P) (store (HeapContents P) I a!2))
                P)))
  (and (= F O)
       (= E N)
       (= D L)
       (= C K)
       (= B J)
       (= A I)
       (= H M)
       (= G a!3)
       ((_ is O_node) a!1)
       (not (= 0 H))
       (= v_16 H)))))
      )
      (inv_main61 G F E H D C A v_16)
    )
  )
)
(assert
  (forall ( (A Int) (B Int) (C Int) (D Int) (E Int) (F Int) (G Int) (H Int) (I Int) (J Int) (K Int) (L Int) (M node) (N Heap) (O Heap) (P Int) (Q Int) (R Int) (S Int) (T Int) (U Int) (V Int) (W Heap) ) 
    (=>
      (and
        (inv_main22 W V U T S R Q)
        (let ((a!1 (HeapCtor (+ 1 (HeapSize N))
                     (store (HeapContents N) (+ 1 (HeapSize N)) (O_node M))))
      (a!2 (ite (and (not (<= Q 0)) (>= (HeapSize W) Q))
                (select (HeapContents W) Q)
                defObj)))
(let ((a!3 (O_node (node R (data (getnode a!2))))))
(let ((a!4 (ite (and (not (<= Q 0)) (>= (HeapSize W) Q))
                (HeapCtor (HeapSize W) (store (HeapContents W) Q a!3))
                W)))
  (and (= L K)
       (= K V)
       (= J I)
       (= I U)
       (= H G)
       (= G R)
       (= F 3)
       (= E I)
       (= D I)
       (= C T)
       (= B S)
       (= A Q)
       (= P (+ 1 (HeapSize N)))
       (= O a!1)
       (= N a!4)
       ((_ is O_node) a!2)
       (not (= 0 P))))))
      )
      (inv_main49 O L J H F E D P)
    )
  )
)
(assert
  (forall ( (A Int) (B Int) (C Int) (D Int) (E Int) (F Int) (G Heap) (H Int) (I Int) (J Int) (K Int) (L Int) (M Int) (N Int) (O Int) (P Int) (Q Heap) ) 
    (=>
      (and
        (inv_main61 Q P O N M L K J)
        (let ((a!1 (ite (and (not (<= J 0)) (>= (HeapSize Q) J))
                (select (HeapContents Q) J)
                defObj)))
  (and (= F P)
       (= E O)
       (= D M)
       (= C L)
       (= B K)
       (= A J)
       (= I (next (getnode a!1)))
       (not (= I H))
       (= G Q)
       ((_ is O_node) a!1)
       (= H N)))
      )
      (inv_main63 G F E H D C B A)
    )
  )
)
(assert
  (forall ( (A Heap) (B Int) (C Int) (D Int) (E Int) (F Int) (G Int) (H Int) (I Int) (J Heap) ) 
    (=>
      (and
        (inv_main28 J I H G F E D C B)
        (let ((a!1 (ite (and (not (<= B 0)) (>= (HeapSize J) B))
                (select (HeapContents J) B)
                defObj)))
(let ((a!2 (O_node (node 0 (data (getnode a!1))))))
(let ((a!3 (ite (and (not (<= B 0)) (>= (HeapSize J) B))
                (HeapCtor (HeapSize J) (store (HeapContents J) B a!2))
                J)))
  (and ((_ is O_node) a!1) (= A a!3)))))
      )
      (inv_main34 A I H G F E D C B)
    )
  )
)
(assert
  (forall ( (A Int) (B Int) (C Int) (D Int) (E Int) (F Heap) (G Int) (H Int) (I Int) (J Int) (K Int) (L Int) (M Int) (N Heap) ) 
    (=>
      (and
        (inv_main71 N M L K J I)
        (let ((a!1 (ite (and (not (<= J 0)) (>= (HeapSize N) J))
                (select (HeapContents N) J)
                defObj)))
  (and (= E M)
       (= C J)
       (= B I)
       (= A (+ 1 B))
       (= H (next (getnode a!1)))
       (not (= H G))
       (= G K)
       (= F N)
       ((_ is O_node) a!1)
       (= D L)))
      )
      (inv_main68 F E D G H A)
    )
  )
)
(assert
  (forall ( (A Int) (B Int) (C Int) (D Int) (E Int) (F Heap) (G Int) (H Int) (I Int) (J Int) (K Int) (L Int) (M Int) (N Heap) (v_14 Int) (v_15 Int) ) 
    (=>
      (and
        (inv_main66 N M L K J I H G)
        (let ((a!1 (ite (and (not (<= H 0)) (>= (HeapSize N) H))
                (select (HeapContents N) H)
                defObj)))
(let ((a!2 (O_node (node K (data (getnode a!1))))))
(let ((a!3 (ite (and (not (<= H 0)) (>= (HeapSize N) H))
                (HeapCtor (HeapSize N) (store (HeapContents N) H a!2))
                N)))
  (and (= E M)
       (= C K)
       (= B J)
       (= A I)
       (= F a!3)
       ((_ is O_node) a!1)
       (= D L)
       (= v_14 C)
       (= 0 v_15)))))
      )
      (inv_main68 F E D C v_14 v_15)
    )
  )
)
(assert
  (forall ( (A Int) (B Int) (C Int) (D Int) (E Int) (F Int) (G Heap) (H Int) (I Int) (J Int) (K Int) (L Int) (M Int) (N Heap) (v_14 Int) (v_15 Int) ) 
    (=>
      (and
        (inv_main58 N M L K J I H)
        (let ((a!1 (ite (and (not (<= H 0)) (>= (HeapSize N) H))
                (select (HeapContents N) H)
                defObj)))
(let ((a!2 (O_node (node H (data (getnode a!1))))))
(let ((a!3 (ite (and (not (<= H 0)) (>= (HeapSize N) H))
                (HeapCtor (HeapSize N) (store (HeapContents N) H a!2))
                N)))
  (and (= E L)
       (= C J)
       (= B I)
       (= A H)
       (= F M)
       (= G a!3)
       ((_ is O_node) a!1)
       (= D K)
       (= v_14 A)
       (= 0 v_15)))))
      )
      (inv_main68 G F E A v_14 v_15)
    )
  )
)
(assert
  (forall ( (A Int) (B Int) (C Int) (D Int) (E Int) (F Heap) ) 
    (=>
      (and
        (inv_main68 F E D C B A)
        (let ((a!1 (ite (and (not (<= B 0)) (>= (HeapSize F) B))
                (select (HeapContents F) B)
                defObj)))
  (and ((_ is O_node) a!1) (= D (data (getnode a!1)))))
      )
      (inv_main71 F E D C B A)
    )
  )
)
(assert
  (forall ( (A Heap) (B Int) (C Int) (D Int) (E Int) (F Int) (G Int) (H Int) (I Heap) ) 
    (=>
      (and
        (inv_main49 I H G F E D C B)
        (let ((a!1 (ite (and (not (<= B 0)) (>= (HeapSize I) B))
                (select (HeapContents I) B)
                defObj)))
(let ((a!2 (O_node (node 0 (data (getnode a!1))))))
(let ((a!3 (ite (and (not (<= B 0)) (>= (HeapSize I) B))
                (HeapCtor (HeapSize I) (store (HeapContents I) B a!2))
                I)))
  (and ((_ is O_node) a!1) (= A a!3)))))
      )
      (inv_main55 A H G F E D C B)
    )
  )
)
(assert
  (forall ( (A Int) (B Int) (C Int) (D Int) (E Int) (F Int) (G Heap) (H Int) (I Int) (J Int) (K Int) (L Int) (M Int) (N Int) (O Int) (P Heap) ) 
    (=>
      (and
        (inv_main55 P O N M L K J I)
        (let ((a!1 (ite (and (not (<= I 0)) (>= (HeapSize P) I))
                (select (HeapContents P) I)
                defObj)))
(let ((a!2 (O_node (node (next (getnode a!1)) J))))
(let ((a!3 (ite (and (not (<= I 0)) (>= (HeapSize P) I))
                (HeapCtor (HeapSize P) (store (HeapContents P) I a!2))
                P)))
  (and (= F O)
       (= E N)
       (= D L)
       (= C K)
       (= B J)
       (= A I)
       (= H M)
       (= G a!3)
       ((_ is O_node) a!1)
       (= 0 H)))))
      )
      (inv_main58 G F E H D C A)
    )
  )
)
(assert
  (forall ( (A Int) (B Int) (C Int) (D Heap) (E Int) (F Int) (G Int) (H Int) (I Int) (J Int) (K Int) (L Int) (M Int) (N Heap) (v_14 Int) ) 
    (=>
      (and
        (inv_main71 N M L K J I)
        (let ((a!1 (ite (and (not (<= J 0)) (>= (HeapSize N) J))
                (select (HeapContents N) J)
                defObj)))
  (and (= E (next (getnode a!1)))
       (= E H)
       (= C L)
       (= B J)
       (= A (+ 1 G))
       (= H K)
       (= G I)
       (= G F)
       (= F M)
       (= D N)
       ((_ is O_node) a!1)
       (not (= 0 H))
       (= v_14 H)))
      )
      (inv_main83 D F C H E A v_14)
    )
  )
)
(assert
  (forall ( (A Int) (B Int) (C Int) (D Int) (E Int) (F Heap) ) 
    (=>
      (and
        (inv_main68 F E D C B A)
        (let ((a!1 (ite (and (not (<= B 0)) (>= (HeapSize F) B))
                (select (HeapContents F) B)
                defObj)))
(let ((a!2 (not (= D (data (getnode a!1))))))
  (and ((_ is O_node) a!1) a!2)))
      )
      (inv_main90 F E D C B A)
    )
  )
)
(assert
  (forall ( (A Int) (B Int) (C Int) (D Heap) (E Int) (F Int) (G Int) (H Int) (I Int) (J Int) (K Int) (L Int) (M Int) (N Heap) ) 
    (=>
      (and
        (inv_main71 N M L K J I)
        (let ((a!1 (ite (and (not (<= J 0)) (>= (HeapSize N) J))
                (select (HeapContents N) J)
                defObj)))
  (and (= C L)
       (= B J)
       (= A (+ 1 H))
       (= H I)
       (not (= H G))
       (= G M)
       (= F (next (getnode a!1)))
       (= F E)
       (= D N)
       ((_ is O_node) a!1)
       (= E K)))
      )
      (inv_main90 D G C E F A)
    )
  )
)
(assert
  (forall ( (A Int) (B Int) (C Int) (D Int) (E Int) (F Heap) (G Int) (H Int) (I Int) (J Int) (K Int) (L Int) (M Int) (N Int) (O Heap) ) 
    (=>
      (and
        (inv_main83 O N M L K J I)
        (let ((a!1 (ite (and (not (<= I 0)) (>= (HeapSize O) I))
                (select (HeapContents O) I)
                defObj)))
  (and (= D M)
       (= C L)
       (= B K)
       (= A J)
       (= H (next (getnode a!1)))
       (not (= H G))
       (= G I)
       (= F O)
       ((_ is O_node) a!1)
       (= E N)))
      )
      (inv_main87 F E D C B A G H)
    )
  )
)
(assert
  (forall ( (A Int) (B Int) (C Int) (D Int) (E Int) (F Int) (G Heap) (H Int) (I Int) (J Int) (K Int) (L Int) (M Int) (N Int) (O Int) (P Heap) (Q Int) (R Int) (S Int) (T Int) (U Int) (V Int) (W Int) (X Int) (Y Int) (Z Heap) ) 
    (=>
      (and
        (inv_main87 Z Y X W V U T S)
        (let ((a!1 (ite (and (not (<= S 0)) (>= (HeapSize Z) S))
                (select (HeapContents Z) S)
                defObj))
      (a!2 (ite (and (not (<= I 0)) (>= (HeapSize P) I))
                (HeapCtor (HeapSize P) (store (HeapContents P) I defObj))
                P)))
  (and (= B K)
       (= A I)
       (= Q J)
       (= O Y)
       (= N X)
       (= M W)
       (= L V)
       (= K U)
       (= J T)
       (= I S)
       (= H (next (getnode a!1)))
       (= F O)
       (= E N)
       (= D M)
       (not (= R Q))
       (= R H)
       (= G a!2)
       (= P Z)
       ((_ is O_node) a!1)
       (= C L)))
      )
      (inv_main87 G F E D C B Q R)
    )
  )
)
(assert
  (forall ( (A Int) (B Int) (C Int) (D Int) (E Int) (F Int) (G Int) (H Int) (I Heap) (J Int) (K Int) (L Int) (M Int) (N Int) (O Int) (P Int) (Q Int) (R Heap) ) 
    (=>
      (and
        (inv_main34 R Q P O N M L K J)
        (let ((a!1 (ite (and (not (<= J 0)) (>= (HeapSize R) J))
                (select (HeapContents R) J)
                defObj)))
(let ((a!2 (O_node (node (next (getnode a!1)) K))))
(let ((a!3 (ite (and (not (<= J 0)) (>= (HeapSize R) J))
                (HeapCtor (HeapSize R) (store (HeapContents R) J a!2))
                R)))
  (and (= G P)
       (= F O)
       (= E N)
       (= D M)
       (= C L)
       (= B K)
       (= A J)
       (= I a!3)
       ((_ is O_node) a!1)
       (= H Q)))))
      )
      (inv_main36 I H G F E D C A)
    )
  )
)
(assert
  (forall ( (A Int) (B Int) (C Int) (D Int) (E Int) (F Int) (G Int) (H Int) (I Heap) (J Int) (K Int) (L Int) (M Int) (N Int) (O Int) (P Int) (Q Heap) ) 
    (=>
      (and
        (inv_main36 Q P O N M L K J)
        (let ((a!1 (ite (and (not (<= J 0)) (>= (HeapSize Q) J))
                (select (HeapContents Q) J)
                defObj)))
(let ((a!2 (O_node (node L (data (getnode a!1))))))
(let ((a!3 (ite (and (not (<= J 0)) (>= (HeapSize Q) J))
                (HeapCtor (HeapSize Q) (store (HeapContents Q) J a!2))
                Q)))
  (and (= H P)
       (= F N)
       (= E M)
       (= D L)
       (= C K)
       (= B J)
       (= A (+ (- 1) F))
       (= I a!3)
       ((_ is O_node) a!1)
       (= G O)))))
      )
      (inv_main21 I H G A E B C)
    )
  )
)
(assert
  (forall ( (A Int) (B Int) (C Int) (D Int) (E Int) (F Int) (G Heap) (H Int) (I Int) (J Int) (K Int) (L Int) (M Int) (N Heap) (v_14 Int) ) 
    (=>
      (and
        (inv_main18 N M L K J I H)
        (let ((a!1 (ite (and (not (<= H 0)) (>= (HeapSize N) H))
                (select (HeapContents N) H)
                defObj)))
(let ((a!2 (O_node (node (next (getnode a!1)) I))))
(let ((a!3 (ite (and (not (<= H 0)) (>= (HeapSize N) H))
                (HeapCtor (HeapSize N) (store (HeapContents N) H a!2))
                N)))
  (and (= E L)
       (= C J)
       (= B I)
       (= A H)
       (= F M)
       (= G a!3)
       ((_ is O_node) a!1)
       (= D K)
       (= v_14 A)))))
      )
      (inv_main21 G F E D C A v_14)
    )
  )
)
(assert
  (forall ( (A Heap) (B Int) (C Int) (D Int) (E Int) (F Int) (G Int) (H Int) (I Heap) ) 
    (=>
      (and
        (inv_main62 I H G F E D C B)
        (let ((a!1 (ite (and (not (<= B 0)) (>= (HeapSize I) B))
                (select (HeapContents I) B)
                defObj)))
(let ((a!2 (O_node (node C (data (getnode a!1))))))
(let ((a!3 (ite (and (not (<= B 0)) (>= (HeapSize I) B))
                (HeapCtor (HeapSize I) (store (HeapContents I) B a!2))
                I)))
  (and ((_ is O_node) a!1) (= A a!3)))))
      )
      (inv_main66 A H G F E D C B)
    )
  )
)
(assert
  (forall ( (A Int) (B Int) (C Int) (D Int) (E Int) (F Int) (G Heap) ) 
    (=>
      (and
        (inv_main12 G F E D C B A)
        (let ((a!1 (ite (and (not (<= A 0)) (>= (HeapSize G) A))
                (select (HeapContents G) A)
                defObj)))
  (not ((_ is O_node) a!1)))
      )
      CHC_COMP_FALSE
    )
  )
)
(assert
  (forall ( (A Int) (B Int) (C Int) (D Int) (E Int) (F Int) (G Heap) ) 
    (=>
      (and
        (inv_main18 G F E D C B A)
        (let ((a!1 (ite (and (not (<= A 0)) (>= (HeapSize G) A))
                (select (HeapContents G) A)
                defObj)))
  (not ((_ is O_node) a!1)))
      )
      CHC_COMP_FALSE
    )
  )
)
(assert
  (forall ( (A Int) (B Int) (C Int) (D Int) (E Int) (F Int) (G Int) (H Int) (I Heap) ) 
    (=>
      (and
        (inv_main28 I H G F E D C B A)
        (let ((a!1 (ite (and (not (<= A 0)) (>= (HeapSize I) A))
                (select (HeapContents I) A)
                defObj)))
  (not ((_ is O_node) a!1)))
      )
      CHC_COMP_FALSE
    )
  )
)
(assert
  (forall ( (A Int) (B Int) (C Int) (D Int) (E Int) (F Int) (G Int) (H Int) (I Heap) ) 
    (=>
      (and
        (inv_main34 I H G F E D C B A)
        (let ((a!1 (ite (and (not (<= A 0)) (>= (HeapSize I) A))
                (select (HeapContents I) A)
                defObj)))
  (not ((_ is O_node) a!1)))
      )
      CHC_COMP_FALSE
    )
  )
)
(assert
  (forall ( (A Int) (B Int) (C Int) (D Int) (E Int) (F Int) (G Int) (H Heap) ) 
    (=>
      (and
        (inv_main36 H G F E D C B A)
        (let ((a!1 (ite (and (not (<= A 0)) (>= (HeapSize H) A))
                (select (HeapContents H) A)
                defObj)))
  (not ((_ is O_node) a!1)))
      )
      CHC_COMP_FALSE
    )
  )
)
(assert
  (forall ( (A Int) (B Int) (C Int) (D Int) (E Int) (F Int) (G Heap) ) 
    (=>
      (and
        (inv_main22 G F E D C B A)
        (let ((a!1 (ite (and (not (<= A 0)) (>= (HeapSize G) A))
                (select (HeapContents G) A)
                defObj)))
  (not ((_ is O_node) a!1)))
      )
      CHC_COMP_FALSE
    )
  )
)
(assert
  (forall ( (A Int) (B Int) (C Int) (D Int) (E Int) (F Int) (G Int) (H Heap) ) 
    (=>
      (and
        (inv_main49 H G F E D C B A)
        (let ((a!1 (ite (and (not (<= A 0)) (>= (HeapSize H) A))
                (select (HeapContents H) A)
                defObj)))
  (not ((_ is O_node) a!1)))
      )
      CHC_COMP_FALSE
    )
  )
)
(assert
  (forall ( (A Int) (B Int) (C Int) (D Int) (E Int) (F Int) (G Int) (H Heap) ) 
    (=>
      (and
        (inv_main55 H G F E D C B A)
        (let ((a!1 (ite (and (not (<= A 0)) (>= (HeapSize H) A))
                (select (HeapContents H) A)
                defObj)))
  (not ((_ is O_node) a!1)))
      )
      CHC_COMP_FALSE
    )
  )
)
(assert
  (forall ( (A Int) (B Int) (C Int) (D Int) (E Int) (F Int) (G Heap) ) 
    (=>
      (and
        (inv_main58 G F E D C B A)
        (let ((a!1 (ite (and (not (<= A 0)) (>= (HeapSize G) A))
                (select (HeapContents G) A)
                defObj)))
  (not ((_ is O_node) a!1)))
      )
      CHC_COMP_FALSE
    )
  )
)
(assert
  (forall ( (A Int) (B Int) (C Int) (D Int) (E Int) (F Int) (G Int) (H Heap) ) 
    (=>
      (and
        (inv_main61 H G F E D C B A)
        (let ((a!1 (ite (and (not (<= A 0)) (>= (HeapSize H) A))
                (select (HeapContents H) A)
                defObj)))
  (not ((_ is O_node) a!1)))
      )
      CHC_COMP_FALSE
    )
  )
)
(assert
  (forall ( (A Int) (B Int) (C Int) (D Int) (E Int) (F Int) (G Int) (H Heap) ) 
    (=>
      (and
        (inv_main63 H G F E D C B A)
        (let ((a!1 (ite (and (not (<= A 0)) (>= (HeapSize H) A))
                (select (HeapContents H) A)
                defObj)))
  (not ((_ is O_node) a!1)))
      )
      CHC_COMP_FALSE
    )
  )
)
(assert
  (forall ( (A Int) (B Int) (C Int) (D Int) (E Int) (F Int) (G Int) (H Heap) ) 
    (=>
      (and
        (inv_main62 H G F E D C B A)
        (let ((a!1 (ite (and (not (<= A 0)) (>= (HeapSize H) A))
                (select (HeapContents H) A)
                defObj)))
  (not ((_ is O_node) a!1)))
      )
      CHC_COMP_FALSE
    )
  )
)
(assert
  (forall ( (A Int) (B Int) (C Int) (D Int) (E Int) (F Int) (G Int) (H Heap) ) 
    (=>
      (and
        (inv_main66 H G F E D C B A)
        (let ((a!1 (ite (and (not (<= B 0)) (>= (HeapSize H) B))
                (select (HeapContents H) B)
                defObj)))
  (not ((_ is O_node) a!1)))
      )
      CHC_COMP_FALSE
    )
  )
)
(assert
  (forall ( (A Int) (B Int) (C Int) (D Int) (E Int) (F Heap) ) 
    (=>
      (and
        (inv_main68 F E D C B A)
        (let ((a!1 (ite (and (not (<= B 0)) (>= (HeapSize F) B))
                (select (HeapContents F) B)
                defObj)))
  (not ((_ is O_node) a!1)))
      )
      CHC_COMP_FALSE
    )
  )
)
(assert
  (forall ( (A Int) (B Int) (C Int) (D Int) (E Int) (F Heap) ) 
    (=>
      (and
        (inv_main71 F E D C B A)
        (let ((a!1 (ite (and (not (<= B 0)) (>= (HeapSize F) B))
                (select (HeapContents F) B)
                defObj)))
  (not ((_ is O_node) a!1)))
      )
      CHC_COMP_FALSE
    )
  )
)
(assert
  (forall ( (A Int) (B Int) (C Int) (D Int) (E Int) (F Int) (G Heap) ) 
    (=>
      (and
        (inv_main83 G F E D C B A)
        (let ((a!1 (ite (and (not (<= A 0)) (>= (HeapSize G) A))
                (select (HeapContents G) A)
                defObj)))
  (not ((_ is O_node) a!1)))
      )
      CHC_COMP_FALSE
    )
  )
)
(assert
  (forall ( (A Int) (B Int) (C Int) (D Int) (E Int) (F Int) (G Int) (H Heap) ) 
    (=>
      (and
        (inv_main87 H G F E D C B A)
        (let ((a!1 (ite (and (not (<= A 0)) (>= (HeapSize H) A))
                (select (HeapContents H) A)
                defObj)))
  (not ((_ is O_node) a!1)))
      )
      CHC_COMP_FALSE
    )
  )
)
(assert
  (forall ( (A Int) (B Int) (C Int) (D Int) (E Int) (F Heap) ) 
    (=>
      (and
        (inv_main90 F E D C B A)
        true
      )
      CHC_COMP_FALSE
    )
  )
)
(assert
  (forall ( (CHC_COMP_UNUSED Bool) ) 
    (=>
      (and
        CHC_COMP_FALSE
      )
      false
    )
  )
)

(check-sat)
(exit)
